p cnf 13 40
-13 12 11 0
-13 -11 -5 0
13 11 1 0
-13 10 -3 0
13 -9 8 0
13 -9 -7 0
-13 9 4 0
13 -7 -2 0
-13 6 5 0
-13 3 -1 0
-12 -11 9 0
-12 10 -7 0
12 -10 3 0
12 9 -7 0
12 -8 -6 0
-12 -8 -2 0
-12 -7 -1 0
12 -7 1 0
-12 -6 5 0
-12 6 -5 0
12 6 -1 0
-12 -5 3 0
-11 10 -3 0
-11 -9 -6 0
11 -9 -4 0
-11 -8 -4 0
11 -8 4 0
-11 7 6 0
10 9 -1 0
-10 7 -4 0
10 -6 1 0
-9 -8 1 0
9 7 -1 0
-9 3 -1 0
-7 6 2 0
7 -5 2 0
-7 -4 1 0
-7 -4 -1 0
7 -3 -2 0
6 -3 2 0
